c CNF file corresponding to a (partial) station packing problem.
p cnf 2523 229
1 2 3 4 5 6 7 8 9 10 11 12 13 14 0
-1 -2 0
-1 -3 0
-1 -4 0
-1 -5 0
-1 -6 0
-1 -7 0
-1 -8 0
-1 -9 0
-1 -10 0
-1 -11 0
-1 -12 0
-1 -13 0
-1 -14 0
-2 -3 0
-2 -4 0
-2 -5 0
-2 -6 0
-2 -7 0
-2 -8 0
-2 -9 0
-2 -10 0
-2 -11 0
-2 -12 0
-2 -13 0
-2 -14 0
-3 -4 0
-3 -5 0
-3 -6 0
-3 -7 0
-3 -8 0
-3 -9 0
-3 -10 0
-3 -11 0
-3 -12 0
-3 -13 0
-3 -14 0
-4 -5 0
-4 -6 0
-4 -7 0
-4 -8 0
-4 -9 0
-4 -10 0
-4 -11 0
-4 -12 0
-4 -13 0
-4 -14 0
-5 -6 0
-5 -7 0
-5 -8 0
-5 -9 0
-5 -10 0
-5 -11 0
-5 -12 0
-5 -13 0
-5 -14 0
-6 -7 0
-6 -8 0
-6 -9 0
-6 -10 0
-6 -11 0
-6 -12 0
-6 -13 0
-6 -14 0
-7 -8 0
-7 -9 0
-7 -10 0
-7 -11 0
-7 -12 0
-7 -13 0
-7 -14 0
-8 -9 0
-8 -10 0
-8 -11 0
-8 -12 0
-8 -13 0
-8 -14 0
-9 -10 0
-9 -11 0
-9 -12 0
-9 -13 0
-9 -14 0
-10 -11 0
-10 -12 0
-10 -13 0
-10 -14 0
-11 -12 0
-11 -13 0
-11 -14 0
-12 -13 0
-12 -14 0
-13 -14 0
2507 2508 2509 2510 2511 2512 2513 2514 2515 2516 2517 2518 2519 2520 2521 2522 2523 0
-2507 -2508 0
-2507 -2509 0
-2507 -2510 0
-2507 -2511 0
-2507 -2512 0
-2507 -2513 0
-2507 -2514 0
-2507 -2515 0
-2507 -2516 0
-2507 -2517 0
-2507 -2518 0
-2507 -2519 0
-2507 -2520 0
-2507 -2521 0
-2507 -2522 0
-2507 -2523 0
-2508 -2509 0
-2508 -2510 0
-2508 -2511 0
-2508 -2512 0
-2508 -2513 0
-2508 -2514 0
-2508 -2515 0
-2508 -2516 0
-2508 -2517 0
-2508 -2518 0
-2508 -2519 0
-2508 -2520 0
-2508 -2521 0
-2508 -2522 0
-2508 -2523 0
-2509 -2510 0
-2509 -2511 0
-2509 -2512 0
-2509 -2513 0
-2509 -2514 0
-2509 -2515 0
-2509 -2516 0
-2509 -2517 0
-2509 -2518 0
-2509 -2519 0
-2509 -2520 0
-2509 -2521 0
-2509 -2522 0
-2509 -2523 0
-2510 -2511 0
-2510 -2512 0
-2510 -2513 0
-2510 -2514 0
-2510 -2515 0
-2510 -2516 0
-2510 -2517 0
-2510 -2518 0
-2510 -2519 0
-2510 -2520 0
-2510 -2521 0
-2510 -2522 0
-2510 -2523 0
-2511 -2512 0
-2511 -2513 0
-2511 -2514 0
-2511 -2515 0
-2511 -2516 0
-2511 -2517 0
-2511 -2518 0
-2511 -2519 0
-2511 -2520 0
-2511 -2521 0
-2511 -2522 0
-2511 -2523 0
-2512 -2513 0
-2512 -2514 0
-2512 -2515 0
-2512 -2516 0
-2512 -2517 0
-2512 -2518 0
-2512 -2519 0
-2512 -2520 0
-2512 -2521 0
-2512 -2522 0
-2512 -2523 0
-2513 -2514 0
-2513 -2515 0
-2513 -2516 0
-2513 -2517 0
-2513 -2518 0
-2513 -2519 0
-2513 -2520 0
-2513 -2521 0
-2513 -2522 0
-2513 -2523 0
-2514 -2515 0
-2514 -2516 0
-2514 -2517 0
-2514 -2518 0
-2514 -2519 0
-2514 -2520 0
-2514 -2521 0
-2514 -2522 0
-2514 -2523 0
-2515 -2516 0
-2515 -2517 0
-2515 -2518 0
-2515 -2519 0
-2515 -2520 0
-2515 -2521 0
-2515 -2522 0
-2515 -2523 0
-2516 -2517 0
-2516 -2518 0
-2516 -2519 0
-2516 -2520 0
-2516 -2521 0
-2516 -2522 0
-2516 -2523 0
-2517 -2518 0
-2517 -2519 0
-2517 -2520 0
-2517 -2521 0
-2517 -2522 0
-2517 -2523 0
-2518 -2519 0
-2518 -2520 0
-2518 -2521 0
-2518 -2522 0
-2518 -2523 0
-2519 -2520 0
-2519 -2521 0
-2519 -2522 0
-2519 -2523 0
-2520 -2521 0
-2520 -2522 0
-2520 -2523 0
-2521 -2522 0
-2521 -2523 0
-2522 -2523 0
